c Reduced graph for GEOM90b_1 generated by Cyril Grelier
p edge 88 845
e 1 2
e 1 3
e 1 4
e 1 5
e 1 6
e 1 10
e 1 12
e 1 15
e 1 20
e 1 30
e 1 32
e 1 33
e 1 34
e 1 35
e 1 37
e 1 39
e 1 41
e 1 44
e 1 46
e 1 47
e 1 51
e 1 64
e 1 65
e 1 66
e 1 67
e 1 69
e 1 70
e 1 72
e 1 73
e 1 75
e 1 78
e 1 81
e 2 3
e 2 4
e 2 5
e 2 6
e 2 8
e 2 9
e 2 12
e 2 30
e 2 31
e 2 34
e 2 35
e 2 36
e 2 37
e 2 38
e 2 39
e 2 43
e 2 56
e 2 64
e 2 65
e 2 66
e 2 68
e 2 69
e 2 71
e 2 73
e 2 74
e 2 75
e 2 76
e 2 77
e 3 5
e 3 6
e 3 8
e 3 9
e 3 12
e 3 14
e 3 31
e 3 34
e 3 35
e 3 39
e 3 41
e 3 43
e 3 46
e 3 48
e 3 56
e 3 64
e 3 65
e 3 66
e 3 68
e 3 71
e 3 74
e 3 75
e 3 76
e 3 77
e 3 80
e 3 81
e 4 6
e 4 9
e 4 10
e 4 13
e 4 15
e 4 20
e 4 30
e 4 32
e 4 33
e 4 34
e 4 35
e 4 37
e 4 44
e 4 47
e 4 50
e 4 51
e 4 64
e 4 65
e 4 66
e 4 67
e 4 69
e 4 70
e 4 72
e 4 73
e 4 78
e 4 84
e 5 6
e 5 12
e 5 14
e 5 18
e 5 31
e 5 34
e 5 35
e 5 39
e 5 41
e 5 43
e 5 46
e 5 48
e 5 64
e 5 65
e 5 66
e 5 68
e 5 71
e 5 74
e 5 75
e 5 76
e 5 77
e 5 80
e 5 81
e 5 82
e 6 7
e 6 8
e 6 9
e 6 10
e 6 30
e 6 31
e 6 32
e 6 33
e 6 34
e 6 35
e 6 36
e 6 37
e 6 38
e 6 43
e 6 64
e 6 65
e 6 66
e 6 67
e 6 69
e 6 70
e 6 73
e 6 76
e 7 8
e 7 9
e 7 11
e 7 16
e 7 17
e 7 19
e 7 21
e 7 30
e 7 34
e 7 35
e 7 36
e 7 38
e 7 40
e 7 42
e 7 45
e 7 49
e 7 52
e 7 53
e 7 54
e 7 55
e 7 57
e 7 58
e 7 66
e 7 83
e 7 85
e 8 9
e 8 11
e 8 16
e 8 23
e 8 30
e 8 31
e 8 34
e 8 35
e 8 36
e 8 37
e 8 38
e 8 40
e 8 43
e 8 53
e 8 56
e 8 64
e 8 65
e 8 66
e 8 69
e 8 73
e 8 76
e 9 10
e 9 11
e 9 13
e 9 30
e 9 34
e 9 35
e 9 36
e 9 37
e 9 38
e 9 40
e 9 42
e 9 53
e 9 64
e 9 65
e 9 66
e 9 67
e 9 69
e 9 73
e 10 13
e 10 20
e 10 30
e 10 32
e 10 33
e 10 34
e 10 35
e 10 37
e 10 42
e 10 50
e 10 59
e 10 65
e 10 66
e 10 67
e 10 69
e 10 70
e 10 72
e 10 73
e 10 79
e 11 16
e 11 17
e 11 19
e 11 30
e 11 36
e 11 38
e 11 40
e 11 42
e 11 45
e 11 49
e 11 52
e 11 53
e 11 54
e 11 55
e 11 57
e 11 58
e 11 60
e 11 83
e 11 85
e 12 14
e 12 18
e 12 31
e 12 39
e 12 41
e 12 44
e 12 46
e 12 48
e 12 64
e 12 65
e 12 68
e 12 71
e 12 74
e 12 75
e 12 80
e 12 81
e 12 82
e 12 86
e 13 17
e 13 21
e 13 27
e 13 30
e 13 34
e 13 35
e 13 37
e 13 42
e 13 49
e 13 50
e 13 52
e 13 59
e 13 67
e 13 69
e 13 73
e 13 79
e 14 18
e 14 25
e 14 31
e 14 39
e 14 41
e 14 46
e 14 48
e 14 68
e 14 71
e 14 74
e 14 75
e 14 80
e 14 81
e 14 82
e 14 86
e 15 20
e 15 22
e 15 26
e 15 32
e 15 33
e 15 44
e 15 47
e 15 51
e 15 62
e 15 67
e 15 70
e 15 72
e 15 78
e 15 84
e 15 87
e 16 23
e 16 36
e 16 38
e 16 40
e 16 43
e 16 45
e 16 53
e 16 54
e 16 56
e 16 57
e 16 58
e 16 60
e 16 76
e 16 83
e 17 19
e 17 21
e 17 24
e 17 40
e 17 42
e 17 45
e 17 49
e 17 52
e 17 54
e 17 55
e 17 79
e 17 83
e 17 85
e 17 88
e 18 25
e 18 31
e 18 39
e 18 46
e 18 48
e 18 68
e 18 71
e 18 74
e 18 75
e 18 77
e 18 80
e 18 81
e 18 82
e 18 86
e 19 21
e 19 24
e 19 40
e 19 42
e 19 45
e 19 49
e 19 52
e 19 53
e 19 54
e 19 55
e 19 57
e 19 83
e 19 85
e 19 88
e 20 22
e 20 32
e 20 33
e 20 37
e 20 50
e 20 63
e 20 67
e 20 70
e 20 72
e 20 78
e 20 84
e 20 87
e 21 24
e 21 27
e 21 30
e 21 40
e 21 42
e 21 49
e 21 52
e 21 55
e 21 59
e 21 69
e 21 79
e 21 88
e 22 26
e 22 32
e 22 33
e 22 44
e 22 47
e 22 51
e 22 62
e 22 70
e 22 72
e 22 78
e 22 84
e 22 87
e 23 31
e 23 36
e 23 43
e 23 56
e 23 60
e 23 68
e 23 71
e 23 76
e 23 77
e 23 80
e 24 42
e 24 49
e 24 52
e 24 55
e 24 59
e 24 79
e 24 85
e 24 88
e 25 31
e 25 48
e 25 68
e 25 71
e 25 74
e 25 77
e 25 80
e 25 82
e 25 86
e 26 44
e 26 47
e 26 51
e 26 62
e 26 72
e 26 78
e 26 84
e 26 87
e 27 28
e 27 29
e 27 59
e 27 61
e 27 79
e 28 29
e 28 50
e 28 59
e 28 61
e 28 63
e 28 79
e 29 59
e 29 61
e 29 63
e 29 79
e 30 33
e 30 34
e 30 35
e 30 36
e 30 37
e 30 38
e 30 40
e 30 42
e 30 53
e 30 64
e 30 65
e 30 66
e 30 67
e 30 69
e 30 73
e 30 79
e 31 36
e 31 39
e 31 43
e 31 48
e 31 56
e 31 64
e 31 66
e 31 68
e 31 71
e 31 74
e 31 75
e 31 76
e 31 77
e 31 80
e 31 82
e 31 86
e 32 33
e 32 34
e 32 35
e 32 37
e 32 39
e 32 41
e 32 44
e 32 47
e 32 51
e 32 64
e 32 65
e 32 66
e 32 67
e 32 69
e 32 70
e 32 72
e 32 73
e 32 78
e 32 84
e 33 34
e 33 35
e 33 37
e 33 44
e 33 47
e 33 50
e 33 51
e 33 65
e 33 66
e 33 67
e 33 69
e 33 70
e 33 72
e 33 73
e 33 78
e 33 84
e 33 87
e 34 35
e 34 37
e 34 38
e 34 64
e 34 65
e 34 66
e 34 67
e 34 69
e 34 70
e 34 72
e 34 73
e 35 37
e 35 38
e 35 64
e 35 65
e 35 66
e 35 67
e 35 69
e 35 70
e 35 72
e 35 73
e 36 38
e 36 40
e 36 43
e 36 45
e 36 53
e 36 56
e 36 57
e 36 58
e 36 60
e 36 64
e 36 66
e 36 76
e 36 77
e 36 83
e 37 50
e 37 64
e 37 65
e 37 66
e 37 67
e 37 69
e 37 70
e 37 72
e 37 73
e 37 79
e 38 40
e 38 43
e 38 45
e 38 53
e 38 54
e 38 56
e 38 57
e 38 58
e 38 60
e 38 66
e 38 76
e 38 83
e 39 41
e 39 44
e 39 46
e 39 47
e 39 48
e 39 51
e 39 64
e 39 65
e 39 68
e 39 71
e 39 74
e 39 75
e 39 81
e 39 82
e 40 42
e 40 45
e 40 49
e 40 52
e 40 53
e 40 54
e 40 55
e 40 57
e 40 58
e 40 83
e 40 85
e 41 44
e 41 46
e 41 47
e 41 51
e 41 64
e 41 65
e 41 68
e 41 70
e 41 71
e 41 74
e 41 75
e 41 81
e 41 82
e 42 45
e 42 49
e 42 52
e 42 55
e 42 59
e 42 69
e 42 73
e 42 79
e 42 88
e 43 56
e 43 60
e 43 64
e 43 66
e 43 68
e 43 71
e 43 74
e 43 76
e 43 77
e 43 80
e 44 46
e 44 47
e 44 51
e 44 65
e 44 67
e 44 70
e 44 72
e 44 75
e 44 78
e 44 81
e 45 49
e 45 52
e 45 53
e 45 54
e 45 55
e 45 57
e 45 58
e 45 83
e 45 85
e 45 88
e 46 47
e 46 48
e 46 51
e 46 64
e 46 68
e 46 71
e 46 74
e 46 75
e 46 81
e 46 82
e 47 51
e 47 65
e 47 70
e 47 72
e 47 75
e 47 78
e 47 81
e 48 68
e 48 71
e 48 74
e 48 75
e 48 77
e 48 80
e 48 81
e 48 82
e 48 86
e 49 52
e 49 54
e 49 55
e 49 57
e 49 79
e 49 83
e 49 85
e 49 88
e 50 59
e 50 61
e 50 63
e 50 67
e 50 69
e 50 72
e 50 73
e 50 78
e 50 79
e 50 84
e 51 67
e 51 70
e 51 72
e 51 78
e 51 87
e 52 54
e 52 55
e 52 59
e 52 79
e 52 85
e 52 88
e 53 54
e 53 57
e 53 58
e 53 60
e 53 76
e 53 83
e 54 55
e 54 57
e 54 58
e 54 83
e 54 85
e 55 57
e 55 83
e 55 85
e 55 88
e 56 60
e 56 64
e 56 68
e 56 71
e 56 76
e 56 77
e 56 80
e 57 58
e 57 83
e 57 85
e 58 60
e 58 83
e 59 61
e 59 79
e 60 76
e 60 77
e 61 63
e 61 79
e 62 78
e 62 84
e 62 87
e 63 84
e 64 65
e 64 66
e 64 67
e 64 68
e 64 69
e 64 70
e 64 71
e 64 73
e 64 74
e 64 75
e 64 76
e 64 77
e 64 81
e 65 66
e 65 67
e 65 68
e 65 69
e 65 70
e 65 72
e 65 73
e 65 75
e 66 67
e 66 69
e 66 70
e 66 73
e 66 76
e 67 69
e 67 70
e 67 72
e 67 73
e 67 78
e 67 84
e 68 71
e 68 74
e 68 75
e 68 76
e 68 77
e 68 80
e 68 81
e 68 82
e 68 86
e 69 70
e 69 72
e 69 73
e 69 79
e 70 72
e 70 73
e 70 78
e 70 84
e 71 74
e 71 75
e 71 76
e 71 77
e 71 80
e 71 81
e 71 82
e 71 86
e 72 73
e 72 78
e 72 84
e 72 87
e 73 79
e 74 75
e 74 76
e 74 77
e 74 80
e 74 81
e 74 82
e 74 86
e 75 81
e 75 82
e 75 86
e 76 77
e 76 80
e 77 80
e 77 86
e 78 84
e 78 87
e 80 82
e 80 86
e 81 82
e 82 86
e 83 85
e 84 87
e 85 88
